; SPDX-License-Identifier: MPL-2.0
; Copyright (c) 2026 The RIINA Authors.
; Auto-generated from 02_FORMAL/coq/domains/TimeSecurity.v (25 validations)
; Generated by scripts/generate-full-stack.py
;
; Translation Validation for TimeSecurity
; Layer 9: Verifies compiler backend preserves formal semantics.
; Each assertion checks source IR ≡ target code for a proven property.

(set-logic QF_LIA)
(set-option :produce-models true)

; IR node representation
(declare-sort IRNode 0)
(declare-sort TargetNode 0)

; nonce_unique: source semantics (matches Coq)
(declare-fun source_nonce_unique () Bool)
(declare-fun target_nonce_unique () Bool)
(assert (= source_nonce_unique target_nonce_unique))

; is_replay: source semantics (matches Coq)
(declare-fun source_is_replay () Bool)
(declare-fun target_is_replay () Bool)
(assert (= source_is_replay target_is_replay))

; seq_increasing: source semantics (matches Coq)
(declare-fun source_seq_increasing () Bool)
(declare-fun target_seq_increasing () Bool)
(assert (= source_seq_increasing target_seq_increasing))

; timestamp_fresh: source semantics (matches Coq)
(declare-fun source_timestamp_fresh () Bool)
(declare-fun target_timestamp_fresh () Bool)
(assert (= source_timestamp_fresh target_timestamp_fresh))

; capability_valid: source semantics (matches Coq)
(declare-fun source_capability_valid () Bool)
(declare-fun target_capability_valid () Bool)
(assert (= source_capability_valid target_capability_valid))

; owner_matches: source semantics (matches Coq)
(declare-fun source_owner_matches () Bool)
(declare-fun target_owner_matches () Bool)
(assert (= source_owner_matches target_owner_matches))

; atomic_complete: source semantics (matches Coq)
(declare-fun source_atomic_complete () Bool)
(declare-fun target_atomic_complete () Bool)
(assert (= source_atomic_complete target_atomic_complete))

; cas_succeeds: source semantics (matches Coq)
(declare-fun source_cas_succeeds () Bool)
(declare-fun target_cas_succeeds () Bool)
(assert (= source_cas_succeeds target_cas_succeeds))

; clock_monotonic: source semantics (matches Coq)
(declare-fun source_clock_monotonic () Bool)
(declare-fun target_clock_monotonic () Bool)
(assert (= source_clock_monotonic target_clock_monotonic))

; happens_before: source semantics (matches Coq)
(declare-fun source_happens_before () Bool)
(declare-fun target_happens_before () Bool)
(assert (= source_happens_before target_happens_before))

; logical_clock_update: source semantics (matches Coq)
(declare-fun source_logical_clock_update () Bool)
(declare-fun target_logical_clock_update () Bool)
(assert (= source_logical_clock_update target_logical_clock_update))

; signature_valid: source semantics (matches Coq)
(declare-fun source_signature_valid () Bool)
(declare-fun target_signature_valid () Bool)
(assert (= source_signature_valid target_signature_valid))

; sources_sufficient: source semantics (matches Coq)
(declare-fun source_sources_sufficient () Bool)
(declare-fun target_sources_sufficient () Bool)
(assert (= source_sources_sufficient target_sources_sufficient))

; skew_bounded: source semantics (matches Coq)
(declare-fun source_skew_bounded () Bool)
(declare-fun target_skew_bounded () Bool)
(assert (= source_skew_bounded target_skew_bounded))

; deadline_met: source semantics (matches Coq)
(declare-fun source_deadline_met () Bool)
(declare-fun target_deadline_met () Bool)
(assert (= source_deadline_met target_deadline_met))

; timeout_triggered: source semantics (matches Coq)
(declare-fun source_timeout_triggered () Bool)
(declare-fun target_timeout_triggered () Bool)
(assert (= source_timeout_triggered target_timeout_triggered))

; lock_order_valid: source semantics (matches Coq)
(declare-fun source_lock_order_valid () Bool)
(declare-fun target_lock_order_valid () Bool)
(assert (= source_lock_order_valid target_lock_order_valid))

; progress_made: source semantics (matches Coq)
(declare-fun source_progress_made () Bool)
(declare-fun target_progress_made () Bool)
(assert (= source_progress_made target_progress_made))

; wait_bounded: source semantics (matches Coq)
(declare-fun source_wait_bounded () Bool)
(declare-fun target_wait_bounded () Bool)
(assert (= source_wait_bounded target_wait_bounded))

; rate_ok: source semantics (matches Coq)
(declare-fun source_rate_ok () Bool)
(declare-fun target_rate_ok () Bool)
(assert (= source_rate_ok target_rate_ok))

; order_preserved: source semantics (matches Coq)
(declare-fun source_order_preserved () Bool)
(declare-fun target_order_preserved () Bool)
(assert (= source_order_preserved target_order_preserved))

; audit_timestamp_ok: source semantics (matches Coq)
(declare-fun source_audit_timestamp_ok () Bool)
(declare-fun target_audit_timestamp_ok () Bool)
(assert (= source_audit_timestamp_ok target_audit_timestamp_ok))

; session_valid: source semantics (matches Coq)
(declare-fun source_session_valid () Bool)
(declare-fun target_session_valid () Bool)
(assert (= source_session_valid target_session_valid))

; time_layers: source semantics (matches Coq)
(declare-fun source_time_layers () Bool)
(declare-fun target_time_layers () Bool)
(assert (= source_time_layers target_time_layers))

; time_001_nonce_unique: translation preserves property (matches Coq: Theorem)
(declare-fun source_time_001_nonce_unique () Bool)
(declare-fun target_time_001_nonce_unique () Bool)
(assert (= source_time_001_nonce_unique target_time_001_nonce_unique))

; time_002_replay_detected: translation preserves property (matches Coq: Theorem)
(declare-fun source_time_002_replay_detected () Bool)
(declare-fun target_time_002_replay_detected () Bool)
(assert (= source_time_002_replay_detected target_time_002_replay_detected))

; time_003_seq_increasing: translation preserves property (matches Coq: Theorem)
(declare-fun source_time_003_seq_increasing () Bool)
(declare-fun target_time_003_seq_increasing () Bool)
(assert (= source_time_003_seq_increasing target_time_003_seq_increasing))

; time_004_timestamp_fresh: translation preserves property (matches Coq: Theorem)
(declare-fun source_time_004_timestamp_fresh () Bool)
(declare-fun target_time_004_timestamp_fresh () Bool)
(assert (= source_time_004_timestamp_fresh target_time_004_timestamp_fresh))

; time_005_capability_valid: translation preserves property (matches Coq: Theorem)
(declare-fun source_time_005_capability_valid () Bool)
(declare-fun target_time_005_capability_valid () Bool)
(assert (= source_time_005_capability_valid target_time_005_capability_valid))

; time_006_owner_matches: translation preserves property (matches Coq: Theorem)
(declare-fun source_time_006_owner_matches () Bool)
(declare-fun target_time_006_owner_matches () Bool)
(assert (= source_time_006_owner_matches target_time_006_owner_matches))

; time_007_atomic_complete: translation preserves property (matches Coq: Theorem)
(declare-fun source_time_007_atomic_complete () Bool)
(declare-fun target_time_007_atomic_complete () Bool)
(assert (= source_time_007_atomic_complete target_time_007_atomic_complete))

; time_008_cas_correct: translation preserves property (matches Coq: Theorem)
(declare-fun source_time_008_cas_correct () Bool)
(declare-fun target_time_008_cas_correct () Bool)
(assert (= source_time_008_cas_correct target_time_008_cas_correct))

; time_009_clock_monotonic: translation preserves property (matches Coq: Theorem)
(declare-fun source_time_009_clock_monotonic () Bool)
(declare-fun target_time_009_clock_monotonic () Bool)
(assert (= source_time_009_clock_monotonic target_time_009_clock_monotonic))

; time_010_happens_before: translation preserves property (matches Coq: Theorem)
(declare-fun source_time_010_happens_before () Bool)
(declare-fun target_time_010_happens_before () Bool)
(assert (= source_time_010_happens_before target_time_010_happens_before))

; time_011_logical_clock_update: translation preserves property (matches Coq: Theorem)
(declare-fun source_time_011_logical_clock_update () Bool)
(declare-fun target_time_011_logical_clock_update () Bool)
(assert (= source_time_011_logical_clock_update target_time_011_logical_clock_update))

; time_012_timestamp_auth: translation preserves property (matches Coq: Theorem)
(declare-fun source_time_012_timestamp_auth () Bool)
(declare-fun target_time_012_timestamp_auth () Bool)
(assert (= source_time_012_timestamp_auth target_time_012_timestamp_auth))

; time_013_multi_source: translation preserves property (matches Coq: Theorem)
(declare-fun source_time_013_multi_source () Bool)
(declare-fun target_time_013_multi_source () Bool)
(assert (= source_time_013_multi_source target_time_013_multi_source))

; time_014_skew_bounded: translation preserves property (matches Coq: Theorem)
(declare-fun source_time_014_skew_bounded () Bool)
(declare-fun target_time_014_skew_bounded () Bool)
(assert (= source_time_014_skew_bounded target_time_014_skew_bounded))

; time_015_deadline_met: translation preserves property (matches Coq: Theorem)
(declare-fun source_time_015_deadline_met () Bool)
(declare-fun target_time_015_deadline_met () Bool)
(assert (= source_time_015_deadline_met target_time_015_deadline_met))

; time_016_timeout_triggered: translation preserves property (matches Coq: Theorem)
(declare-fun source_time_016_timeout_triggered () Bool)
(declare-fun target_time_016_timeout_triggered () Bool)
(assert (= source_time_016_timeout_triggered target_time_016_timeout_triggered))

; time_017_lock_order: translation preserves property (matches Coq: Theorem)
(declare-fun source_time_017_lock_order () Bool)
(declare-fun target_time_017_lock_order () Bool)
(assert (= source_time_017_lock_order target_time_017_lock_order))

; time_018_no_deadlock: translation preserves property (matches Coq: Theorem)
(declare-fun source_time_018_no_deadlock () Bool)
(declare-fun target_time_018_no_deadlock () Bool)
(assert (= source_time_018_no_deadlock target_time_018_no_deadlock))

; time_019_progress: translation preserves property (matches Coq: Theorem)
(declare-fun source_time_019_progress () Bool)
(declare-fun target_time_019_progress () Bool)
(assert (= source_time_019_progress target_time_019_progress))

; time_020_fair_scheduling: translation preserves property (matches Coq: Theorem)
(declare-fun source_time_020_fair_scheduling () Bool)
(declare-fun target_time_020_fair_scheduling () Bool)
(assert (= source_time_020_fair_scheduling target_time_020_fair_scheduling))

; time_021_rate_limiting: translation preserves property (matches Coq: Theorem)
(declare-fun source_time_021_rate_limiting () Bool)
(declare-fun target_time_021_rate_limiting () Bool)
(assert (= source_time_021_rate_limiting target_time_021_rate_limiting))

; time_022_ordered_delivery: translation preserves property (matches Coq: Theorem)
(declare-fun source_time_022_ordered_delivery () Bool)
(declare-fun target_time_022_ordered_delivery () Bool)
(assert (= source_time_022_ordered_delivery target_time_022_ordered_delivery))

; time_023_audit_timestamp: translation preserves property (matches Coq: Theorem)
(declare-fun source_time_023_audit_timestamp () Bool)
(declare-fun target_time_023_audit_timestamp () Bool)
(assert (= source_time_023_audit_timestamp target_time_023_audit_timestamp))

; time_024_session_valid: translation preserves property (matches Coq: Theorem)
(declare-fun source_time_024_session_valid () Bool)
(declare-fun target_time_024_session_valid () Bool)
(assert (= source_time_024_session_valid target_time_024_session_valid))

; time_025_defense_in_depth: translation preserves property (matches Coq: Theorem)
(declare-fun source_time_025_defense_in_depth () Bool)
(declare-fun target_time_025_defense_in_depth () Bool)
(assert (= source_time_025_defense_in_depth target_time_025_defense_in_depth))

; Verify all translation validations are satisfiable
(check-sat)
(exit)
